NAME : morphed23-5-3
COMMENT : Generated using the function morphInstances from the R-package netgen (Bossek,2015) - Number of clusters: 5 Alpha: 0.5
TYPE : TSP
DIMENSION : 23
EDGE_WEIGHT_TYPE : EUC_2D
NODE_COORD_SECTION
1 15.0966992869 7.765099757
2 85.815660035 32.0809952242
3 44.3563585377 80.4423000541
4 22.7504832942 69.1383461125
5 59.387454166 88.4061097113
6 66.0527341517 57.8749760172
7 11.6264071182 76.2706913383
8 24.2156462854 31.9606456794
9 65.562041911 44.4004714977
10 76.7592036898 29.9277499266
11 58.9974239192 47.4398043444
12 36.8034731043 15.5031631412
13 41.4716276293 26.2144664954
14 55.4558957654 90.116311311
15 92.9910476971 28.4849049922
16 82.8131957324 59.6931615602
17 12.2667975378 18.4264277784
18 76.8985731382 33.2116649016
19 74.2669515082 77.6033544823
20 24.0478038117 15.851811014
21 16.1147869242 64.2854060027
22 5.1907988001 55.8030628533
23 15.1869657661 22.3780697218
EOF
